int NumberPatients = 117
int NumberOfRooms = 13
int NumberSurgeons = 18
int NumberOfDays = 6
Duration = [97,47,107,98,238,32,210,244,93,66,32,74,59,98,131,32,47,66,58,103,32,263,66,93,66,40,98,47,78,47,93,46,74,53,98,227,66,32,98,98,79,66,272,119,119,46,66,46,101,60,65,98,103,66,47,60,32,107,59,58,66,132,60,130,32,60,98,46,166,131,277,97,32,238,103,32,46,85,201,138,46,119,103,256,98,47,66,210,32,32,32,227,217,53,159,60,78,60,166,98,66,98,100,85,32,103,46,53,103,47,74,103,66,53,98,47,66];
Priority = [0,0,0,0,0,0,0,0,0,0,0,0,0,0,0,0,0,0,0,0,0,0,0,0,0,0,0,0,0,0,0,0,0,0,0,0,0,0,0,1,0,0,0,0,0,0,0,0,0,0,0,0,0,1,0,0,0,0,0,0,0,0,0,0,0,0,0,0,0,0,0,0,0,0,0,0,0,0,0,0,0,0,0,0,0,0,0,0,2,0,0,0,0,0,0,0,0,0,0,0,0,0,0,0,0,0,0,0,0,0,0,0,0,0,0,0,0];
Waiting = [64,60,49,382,45,123,148,84,66,52,50,59,52,53,487,155,387,116,81,120,80,37,46,291,78,445,67,247,417,144,123,155,35,102,487,43,338,141,324,78,66,175,37,211,1096,464,35,473,410,114,36,39,78,178,190,164,220,366,84,116,78,32,60,53,178,45,79,172,115,57,106,21,113,45,56,81,25,275,24,32,324,120,24,84,242,85,120,37,220,116,46,123,207,23,119,102,39,87,163,518,102,46,220,45,175,43,93,115,169,57,259,37,30,141,73,51,78];
Surgeon = [5,5,4,5,8,11,6,3,1,6,4,1,11,6,1,7,2,9,3,4,1,1,5,1,2,4,6,6,6,4,4,4,1,9,3,6,2,5,4,6,4,11,1,3,4,6,1,5,3,2,9,2,1,6,6,8,5,8,11,1,6,1,7,9,1,1,5,1,3,8,3,5,2,4,1,1,7,3,5,2,4,2,2,1,6,8,6,1,3,3,4,6,3,4,6,4,3,3,4,4,11,2,3,3,2,5,5,1,6,5,6,6,3,3,6,11,1];
BlockAvailability = [[[1,0],[0,0],[0,0],[0,0],[0,1],[0,1],[1,0],[0,0],[0,0],[0,0],[0,0],[0,0],[1,0]],[[1,1],[0,0],[1,0],[1,0],[1,0],[1,0],[0,1],[0,0],[0,1],[0,0],[1,1],[0,1],[0,0]],[[0,0],[1,0],[0,1],[0,0],[0,0],[0,0],[0,0],[0,0],[0,0],[0,1],[0,0],[0,0],[0,0]],[[0,0],[0,0],[0,0],[0,1],[0,1],[0,0],[0,1],[1,0],[0,0],[0,1],[1,0],[0,0],[0,0]],[[0,0],[0,0],[0,1],[0,1],[1,0],[0,0],[1,0],[0,0],[1,0],[0,0],[0,1],[1,0],[0,0]],[[0,0],[0,0],[0,0],[0,0],[1,1],[0,0],[0,1],[1,0],[0,0],[0,0],[0,0],[0,0],[1,1]]];
SurgeonAvailability = [[[1,1],[1,1],[1,1],[1,1],[0,0],[1,1]],[[1,1],[0,1],[1,1],[1,0],[1,1],[1,1]],[[1,1],[0,1],[0,1],[1,1],[1,0],[0,1]],[[0,1],[1,1],[1,1],[1,1],[1,1],[1,0]],[[1,1],[1,1],[1,1],[0,1],[1,1],[0,1]],[[1,1],[0,0],[0,1],[1,1],[1,1],[1,1]],[[1,1],[1,0],[1,1],[1,0],[1,0],[1,1]],[[0,1],[1,0],[1,1],[1,1],[1,1],[1,1]],[[1,1],[0,1],[0,1],[1,1],[1,1],[1,0]],[[1,1],[1,1],[1,1],[1,1],[0,1],[1,1]],[[1,1],[1,0],[1,0],[1,1],[0,1],[1,1]],[[1,1],[1,1],[1,1],[0,1],[1,1],[1,0]],[[0,1],[1,1],[1,1],[0,1],[0,1],[1,1]],[[1,1],[0,1],[0,0],[0,1],[1,0],[1,1]],[[1,1],[1,1],[1,1],[1,1],[1,1],[0,1]],[[0,1],[1,1],[1,1],[1,0],[0,1],[0,0]],[[1,0],[0,1],[1,1],[1,1],[1,1],[1,1]],[[1,1],[0,0],[0,1],[1,1],[1,0],[1,0]]];
